Degree: 21.78679, D = 3.4212
   1.00000000000000 
       8.435405779237879        0.000000000000000        0.000000000000000
      -4.217702889618939        7.305275696050071        0.000000000000000
       0.000000000000000        0.000000000000000       29.745472701436579
   V    S
    15     28
Cartesian
-1.2050579684625542    6.2616648823286356    1.5810610770076601
-0.6025289842312777    3.1308324411643160    1.5810610770076601
 0.0000000000000000    0.0000000000000000    1.5810610770076601
 1.8075869526938324    5.2180540686071959    1.5810610770076601
 2.4101159369251088    2.0872216274428763    1.5810610770076601
 4.8202318738502186    4.1744432548857562    1.5810610770076601
 5.4227608580814959    1.0436108137214368    1.5810610770076601
-4.2177028896189395    7.3052756960500700    8.1644116244289204
-1.8075869526938306    5.2180540686071915    8.1644116244289204
 1.2050579684625542    6.2616648823286347    8.1644116244289204
 0.6025289842312760    3.1308324411643160    8.1644116244289204
 0.0000000000000000    0.0000000000000000    8.1644116244289204
 3.6151739053876635    4.1744432548857562    8.1644116244289204
 3.0126449211563853    1.0436108137214375    8.1644116244289204
 6.0252898423127732    2.0872216274428776    8.1644116244289204
-1.8075869526938297    4.5223135261262337    0.0000000000000000
 0.6025289842312769    6.6095351535691149    0.0000000000000000
 1.2050579684625533    3.4787027124047953    0.0000000000000000
 1.8075869526938311    0.3478702712404793    0.0000000000000000
 3.6151739053876635    5.5659243398476752    0.0000000000000000
 4.2177028896189395    2.4350918986833556    0.0000000000000000
 7.2303478107753261    1.3914810849619159    0.0000000000000000
-3.0126449211563839    5.9137946110881519    3.1621221540153202
-0.0000000000000007    4.8701837973667139    3.1621221540153202
 0.6025289842312771    1.7393513562023977    3.1621221540153202
 2.4101159369251093    6.9574054248095933    3.1621221540153202
 3.0126449211563857    3.8265729836452742    3.1621221540153202
 3.6151739053876639    0.6957405424809582    3.1621221540153202
 6.0252898423127723    2.7829621699238345    3.1621221540153202
-2.4101159369251093    6.9574054248095916    6.5833505474212597
 0.0000000000000004    4.8701837973667121    6.5833505474212597
-0.6025289842312757    1.7393513562023966    6.5833505474212597
 3.0126449211563848    5.9137946110881554    6.5833505474212597
 2.4101159369251066    2.7829621699238363    6.5833505474212597
 5.4227608580814941    3.8265729836452769    6.5833505474212597
 4.8202318738502159    0.6957405424809582    6.5833505474212597
-0.6025289842312769    6.6095351535691105    9.7454727014365794
-1.2050579684625526    3.4787027124047940    9.7454727014365794
 1.8075869526938297    4.5223135261262346    9.7454727014365794
 1.2050579684625540    1.3914810849619181    9.7454727014365794
 4.8202318738502177    5.5659243398476743    9.7454727014365794
 4.2177028896189395    2.4350918986833556    9.7454727014365794
 6.6278188265440487    0.3478702712404775    9.7454727014365794
