Primitive Cell, D = 3.3080
   1.00000000000000 
       3.317131037480801        0.000000000000000        0.000000000000000
      -1.658565518740400        2.872719746140204        0.000000000000000
       0.000000000000000        0.000000000000000       30.211910946413617
   V    Te
     2      4
Cartesian
 0.0000000000000000    0.0000000000000000    1.7259833117830334
 0.0000000000000000    0.0000000000000000    8.4859276346305830
 1.6585655187404003    0.9575732487134012    0.0000000000000000
 0.0000000000000000    1.9151464974268024    3.4519666235660669
 1.6585655187404003    0.9575732487134012    6.7599443228475504
 0.0000000000000000    1.9151464974268024   10.2119109464136173
