Degree: 32.20423
   1.00000000000000 
      11.960086043070087        0.000000000000000        0.000000000000000
      -5.980043021535043       10.357738344746400        0.000000000000000
       0.000000000000000        0.000000000000000       29.445472701436579
   V    Se
    28     52
Cartesian
-2.7600198560930971    9.5609892413043713    1.5810610770076601
-1.8400132373953992    6.3739928275362461    1.5810610770076601
-0.9200066186977018    3.1869964137681217    1.5810610770076601
 0.0000000000000000    0.0000000000000000    1.5810610770076601
 0.4600033093488545    8.7642401378623394    1.5810610770076601
 1.3800099280465523    5.5772437240942141    1.5810610770076601
 2.3000165467442497    2.3902473103260897    1.5810610770076601
 3.6800264747907994    7.9674910344203091    1.5810610770076601
 4.6000330934884968    4.7804946206521839    1.5810610770076601
 5.5200397121861942    1.5934982068840589    1.5810610770076601
 5.9800430215350406   10.3577383447463962    1.5810610770076601
 6.9000496402327443    7.1707419309782781    1.5810610770076601
 7.8200562589304408    3.9837455172101528    1.5810610770076601
 8.7400628776281390    0.7967491034420284    1.5810610770076601
-3.6800264747907976    7.9674910344203056    7.8644116244289197
-0.4600033093488500    8.7642401378623394    7.8644116244289197
-1.3800099280465510    5.5772437240942150    7.8644116244289197
 2.7600198560930966    9.5609892413043731    7.8644116244289197
 1.8400132373953961    6.3739928275362479    7.8644116244289197
 0.9200066186976954    3.1869964137681244    7.8644116244289197
 0.0000000000000000    0.0000000000000000    7.8644116244289197
 5.9800430215350397   10.3577383447463962    7.8644116244289197
 5.0600364028373477    7.1707419309782754    7.8644116244289197
 4.1400297841396476    3.9837455172101515    7.8644116244289197
 3.2200231654419467    0.7967491034420278    7.8644116244289197
 7.3600529495815943    4.7804946206521848    7.8644116244289197
 6.4400463308838933    1.5934982068840604    7.8644116244289197
 9.6600694963258409    2.3902473103260933    7.8644116244289197
-4.6000330934884941    9.0298231723430149    0.0000000000000000
-1.3800099280465499    8.2330740689009847    0.0000000000000000
-0.4600033093488525    5.0460776551328594    0.0000000000000000
 0.4600033093488495    1.8590812413647382    0.0000000000000000
 1.8400132373954017    7.4363249654589518    0.0000000000000000
 2.7600198560930993    4.2493285516908275    0.0000000000000000
 3.6800264747908011    1.0623321379227058    0.0000000000000000
 4.1400297841396485    9.8265722757850469    0.0000000000000000
 5.0600364028373459    6.6395758620169216    0.0000000000000000
 5.9800430215350442    3.4525794482487964    0.0000000000000000
 6.9000496402327451    0.2655830344806753    0.0000000000000000
 8.2800595682792899    5.8428267585748905    0.0000000000000000
 9.2000661869769882    2.6558303448067662    0.0000000000000000
-4.6000330934884941    9.0298231723430149    3.1621221540153202
-1.3800099280465499    8.2330740689009847    3.1621221540153202
-0.4600033093488525    5.0460776551328594    3.1621221540153202
 0.4600033093488495    1.8590812413647382    3.1621221540153202
 1.8400132373954017    7.4363249654589518    3.1621221540153202
 2.7600198560930993    4.2493285516908275    3.1621221540153202
 3.6800264747908011    1.0623321379227058    3.1621221540153202
 4.1400297841396485    9.8265722757850469    3.1621221540153202
 5.0600364028373459    6.6395758620169216    3.1621221540153202
 5.9800430215350442    3.4525794482487964    3.1621221540153202
 6.9000496402327451    0.2655830344806753    3.1621221540153202
 8.2800595682792899    5.8428267585748905    3.1621221540153202
 9.2000661869769882    2.6558303448067662    3.1621221540153202
-2.3000165467442497    9.2954062068236905    6.2833505474212608
-3.2200231654419449    6.1084097930555670    6.2833505474212608
 0.9200066186976974   10.0921553102657242    6.2833505474212608
-0.0000000000000031    6.9051588964975998    6.2833505474212608
-0.9200066186976985    3.7181624827294755    6.2833505474212608
 3.2200231654419436    7.7019079999396318    6.2833505474212608
 2.3000165467442431    4.5149115861715083    6.2833505474212608
 1.3800099280465481    1.3279151724033846    6.2833505474212608
 6.4400463308838951    8.4986571033816602    6.2833505474212608
 5.5200397121861950    5.3116606896135359    6.2833505474212608
 4.6000330934884950    2.1246642758454124    6.2833505474212608
 7.8200562589304408    2.9214133792874448    6.2833505474212608
 10.1200728056746883    0.5311660689613538    6.2833505474212608
-2.3000165467442497    9.2954062068236905    9.4454727014365805
-3.2200231654419449    6.1084097930555670    9.4454727014365805
 0.9200066186976974   10.0921553102657242    9.4454727014365805
-0.0000000000000031    6.9051588964975998    9.4454727014365805
-0.9200066186976985    3.7181624827294755    9.4454727014365805
 3.2200231654419436    7.7019079999396318    9.4454727014365805
 2.3000165467442431    4.5149115861715083    9.4454727014365805
 1.3800099280465481    1.3279151724033846    9.4454727014365805
 6.4400463308838951    8.4986571033816602    9.4454727014365805
 5.5200397121861950    5.3116606896135359    9.4454727014365805
 4.6000330934884950    2.1246642758454124    9.4454727014365805
 7.8200562589304408    2.9214133792874448    9.4454727014365805
 10.1200728056746883    0.5311660689613538    9.4454727014365805
